tsp_instances/TSP20/instance36.tsp
NODE_COORD_SECTION
0 47 161
1 67 1
2 159 179
3 139 54
4 83 120
5 108 86
6 157 188
7 91 67
8 30 152
9 147 106
10 30 150
11 90 27
12 174 154
13 44 92
14 120 58
15 7 42
16 46 137
17 67 188
18 62 136
19 78 139
