tsp_instances/TSP20/instance36.opt.tour
TOUR_SECTION
1
9
11
17
19
20
5
14
16
2
12
8
6
15
4
10
13
3
7
18
-1